% Logging successfully configured
=====UNKNOWN=====
% time elapsed: 1799.63 s
%%%mzn-stat: initTime=0.015741369
%%%mzn-stat: nodes=1237504
%%%mzn-stat: restarts=1
%%%mzn-stat: peakDepth=93
%%%mzn-stat: solveTime=1792.507505404
%%%mzn-stat: variables=1374
%%%mzn-stat: propagators=1053
%%%mzn-stat: failures=1104965
%%%mzn-stat: propagations=34388008
%%%mzn-stat: nogoods=1104965
%%%mzn-stat: numAtomicConstraintsPropagated=0
%%%mzn-stat: allDifferentNumber1PropagationsTotal=4603525
%%%mzn-stat: allDifferentNumber1PropagationsThatFoundConflict=63271
%%%mzn-stat: allDifferentNumber1PropagationsThatPruned=3070125
%%%mzn-stat: allDifferentNumber1TotalValuesPruned=24123583
%%%mzn-stat: allDifferentNumber1TotalHallSetSizeConflict=820159
%%%mzn-stat: allDifferentNumber1NumberOfConflicts=63271
%%%mzn-stat: allDifferentNumber1MaxHallSetSizeConflict=47
%%%mzn-stat: allDifferentNumber1TotalPruningHallSetSize=338782901
%%%mzn-stat: allDifferentNumber1NumberOfPruningExplanations=24123583
%%%mzn-stat: allDifferentNumber1MaxPruningHallSetSize=80
%%%mzn-stat: allDifferentNumber1TotalFixedEdgesAtConflict=3942852
%%%mzn-stat: allDifferentNumber1TotalVarsInvolvedInPruning=16606716
%%%mzn-stat: allDifferentNumber1MaxValuesPrunedFromSingleVar=8
%%%mzn-stat: allDifferentNumber1TotalSccSizeAtPruning=84807460
%%%mzn-stat: allDifferentNumber1NumberOfSccPruningCalls=3070125
%%%mzn-stat: circuitNumber2PropagationsThatFoundConflict=369536
%%%mzn-stat: circuitNumber2TotalFixedEdgesAtConflict=22853898
%%%mzn-stat: circuitNumber2NumberOfConflicts=369536
%%%mzn-stat: circuitNumber2PropagationsThatPruned=329229
%%%mzn-stat: circuitNumber2PropagationsTotal=2214562
%%%mzn-stat: AverageConflictSize=22.262937740109415
%%%mzn-stat: NumUnitNogoodsLearned=0
%%%mzn-stat: AverageLearnedNogoodLength=106.55143466082636
%%%mzn-stat: AverageBacktrackAmount=0
%%%mzn-stat: AverageLbd=40.790640427524856
%%%mzn-stat: 2AutonomousSearchNumBackupCalled=1
%%%mzn-stat: 2AutonomousSearchNumPredicatesRemoved=0
%%%mzn-stat: 2AutonomousSearchNumCalls=94
%%%mzn-stat: 2AutonomousSearchNumPredicatesAdded=12329
%%%mzn-stat: 2AutonomousSearchAverageSizeOfHeap=6017.606382978724
%%%mzn-stat: 2AutonomousSearchNumAssignedPredicatesEncountered=10384
%%%mzn-stat-end
